db/data/2653028329147051329032584212521771027336.z3.out
-------------------
2500.762199838
